
(set-logic ALL) 

(declare-datatype MyList ((Nil) (Cons (head Real) (tail MyList)) )) 
(declare-fun l0 () MyList) 
(declare-fun l1 () MyList) 
(declare-fun l2 () MyList) 
(declare-fun l3 () MyList) 
(declare-fun i0 () Real) 
(declare-fun i1 () Real) 
(assert (and (= l0 Nil) (is-Nil Nil) (= l0 Nil)) )
(assert (= l2 l3) )
(assert (= l2 l0) )
(assert (not (is-Cons Nil)) )
(assert (and (is-Nil Nil) (= l3 l2) (is-Cons l3) (= l2 Nil)) )
(assert (= l1 Nil) )
(assert (or (= l3 l0) (= l0 l0) (= l0 Nil)) )
(assert (or (= l3 Nil) (is-Nil Nil) (= l3 Nil)) )
(check-sat)
